Experiments/Dataset/DNEGMibs/DNeg_n30k3j4.mps
NAME	DNeg_n30k3j4
ROWS
 N 	 OBJROW
 L	 R0 
COLUMNS
 C0	 OBJROW 	-75	 R0 	6	
 C1	 OBJROW 	-67	 R0 	13	
 C2	 OBJROW 	-19	 R0 	19	
 C3	 OBJROW 	-87	 R0 	22	
 C4	 OBJROW 	-64	 R0 	25	
 C5	 OBJROW 	-54	 R0 	27	
 C6	 OBJROW 	-85	 R0 	28	
 C7	 OBJROW 	-71	 R0 	30	
 C8	 OBJROW 	-24	 R0 	31	
 C9	 OBJROW 	-61	 R0 	35	
 C10	 OBJROW 	-4	 R0 	37	
 C11	 OBJROW 	-26	 R0 	38	
 C12	 OBJROW 	-58	 R0 	44	
 C13	 OBJROW 	-53	 R0 	47	
 C14	 OBJROW 	-67	 R0 	48	
 C15	 OBJROW 	-76	 R0 	48	
 C16	 OBJROW 	-12	 R0 	51	
 C17	 OBJROW 	-21	 R0 	53	
 C18	 OBJROW 	-24	 R0 	54	
 C19	 OBJROW 	-14	 R0 	70	
 C20	 OBJROW 	-47	 R0 	73	
 C21	 OBJROW 	-1	 R0 	75	
 C22	 OBJROW 	-68	 R0 	75	
 C23	 OBJROW 	-95	 R0 	76	
 C24	 OBJROW 	-49	 R0 	77	
 C25	 OBJROW 	-55	 R0 	78	
 C26	 OBJROW 	-70	 R0 	80	
 C27	 OBJROW 	-4	 R0 	91	
 C28	 OBJROW 	-7	 R0 	97	
 C29	 OBJROW 	-27	 R0 	98	
RHS
 RHS	 R0 	 563	
BOUNDS
 BV BOUND	C0	 1	
 BV BOUND	C1	 1	
 BV BOUND	C2	 1	
 BV BOUND	C3	 1	
 BV BOUND	C4	 1	
 BV BOUND	C5	 1	
 BV BOUND	C6	 1	
 BV BOUND	C7	 1	
 BV BOUND	C8	 1	
 BV BOUND	C9	 1	
 BV BOUND	C10	 1	
 BV BOUND	C11	 1	
 BV BOUND	C12	 1	
 BV BOUND	C13	 1	
 BV BOUND	C14	 1	
 BV BOUND	C15	 1	
 BV BOUND	C16	 1	
 BV BOUND	C17	 1	
 BV BOUND	C18	 1	
 BV BOUND	C19	 1	
 BV BOUND	C20	 1	
 BV BOUND	C21	 1	
 BV BOUND	C22	 1	
 BV BOUND	C23	 1	
 BV BOUND	C24	 1	
 BV BOUND	C25	 1	
 BV BOUND	C26	 1	
 BV BOUND	C27	 1	
 BV BOUND	C28	 1	
 BV BOUND	C29	 1	
ENDATA
