Experiments/Dataset/DNEGMibs/DNeg_n30k3j4.txt
N 30
M 31
LC 30
LC 31
LC 32
LC 33
LC 34
LC 35
LC 36
LC 37
LC 38
LC 39
LC 40
LC 41
LC 42
LC 43
LC 44
LC 45
LC 46
LC 47
LC 48
LC 49
LC 50
LC 51
LC 52
LC 53
LC 54
LC 55
LC 56
LC 57
LC 58
LC 59
LR 1
LR 2
LR 3
LR 4
LR 5
LR 6
LR 7
LR 8
LR 9
LR 10
LR 11
LR 12
LR 13
LR 14
LR 15
LR 16
LR 17
LR 18
LR 19
LR 20
LR 21
LR 22
LR 23
LR 24
LR 25
LR 26
LR 27
LR 28
LR 29
LR 30
LR 31
LO -75
LO -67
LO -19
LO -87
LO -64
LO -54
LO -85
LO -71
LO -24
LO -61
LO -4
LO -26
LO -58
LO -53
LO -67
LO -76
LO -12
LO -21
LO -24
LO -14
LO -47
LO -1
LO -68
LO -95
LO -49
LO -55
LO -70
LO -4
LO -7
LO -27
OS 1
IC 70
IC 31
IC 36
IC 69
IC 96
IC 38
IC 59
IC 34
IC 9
IC 6
IC 33
IC 46
IC 5
IC 68
IC 89
IC 28
IC 27
IC 62
IC 59
IC 83
IC 80
IC 98
IC 41
IC 48
IC 13
IC 42
IC 66
IC 64
IC 49
IC 79
IB 566
